NAME : amtsp
TYPE : ATSP
DIMENSION : 6
EDGE_WEIGHT_TYPE : EXPLICIT
EDGE_WEIGHT_FORMAT : FULL_MATRIX
EDGE_WEIGHT_SECTION
100000 -100000 100000 100000 100000 100000 
100000 100000 1675 2254 137 285 
0 0 100000 500 517 404 
0 0 500 100000 2215 775 
0 0 517 2215 100000 250 
0 0 404 775 250 100000 
